c SAT Generator for power-law distributed variable frequencies
c -g u -v 20 -c 91 -k 3 -p 2.750000 -b 3.200000 -f /home/schmidt/Devel/ni-kop-sat/data/ensemble/ruf20-91/ruf20-91-841 -u 1 -U 1 -s 1327034822
p cnf 20 91
-9 17 20 0
9 -10 14 0
6 -8 -14 0
-6 -14 15 0
-1 2 -6 0
2 3 19 0
16 18 20 0
-6 12 -20 0
-2 13 18 0
-2 -4 -14 0
-2 -8 19 0
-8 -11 -18 0
13 18 19 0
-14 -16 -18 0
4 12 -18 0
6 9 -11 0
-2 3 8 0
1 -8 18 0
1 -8 -13 0
-4 13 -15 0
6 17 -18 0
-5 -18 -20 0
-8 9 -13 0
5 -12 -15 0
12 -13 -18 0
5 8 17 0
-4 -7 -17 0
-8 16 17 0
-6 8 19 0
-9 10 18 0
-13 -15 -19 0
-10 -13 15 0
4 -11 -17 0
-1 11 -19 0
2 3 -8 0
8 15 -19 0
-12 -13 -15 0
2 -10 -20 0
7 14 15 0
5 10 -14 0
-2 -14 -20 0
-2 14 -15 0
-7 -8 -11 0
-10 -11 -16 0
3 -5 -10 0
-13 -17 -18 0
5 -10 14 0
3 -10 -20 0
12 -17 -20 0
6 15 -19 0
-1 5 -16 0
5 -8 20 0
-7 -13 -16 0
9 -10 20 0
-4 -5 11 0
-2 -19 -20 0
5 15 -19 0
1 18 19 0
3 5 17 0
4 -15 -17 0
-9 -13 -14 0
9 15 -17 0
10 -11 19 0
-4 -8 -19 0
-15 17 20 0
-6 8 -19 0
-9 -18 -19 0
2 13 -17 0
-5 13 -15 0
-5 -9 -18 0
1 8 20 0
3 -15 -16 0
1 -14 20 0
-9 10 -12 0
-10 13 18 0
-5 7 13 0
-15 18 -20 0
8 15 16 0
-14 18 -20 0
-8 -12 13 0
8 -9 11 0
-4 5 19 0
-6 -12 -15 0
2 9 -11 0
3 7 19 0
-3 -8 -17 0
5 -11 20 0
-5 8 13 0
12 -15 -18 0
-5 8 12 0
6 -7 -20 0
